11А 25 11111111111111111111111111111111111
11Б 23 11111111111111111111111111111111111
10А 25 11111111111111111111111111111111111
10Б 21 11111111111111111111111111111111111
10В 28 11111111111111111111111111111111111